Instance name: /home/cuong/CLionProjects/uMV-FSTSP/50_dis_rand_ins/v29
Write arg val: 1

drone speed: 1 miles/minute
uav non-eligible customer: 1 6 11 
Printing tau:
0 17.0168 48.1362 39.1438 47.4572 42.1415 29.3852 48.7421 72.0301 84.189 98.7577 0 
17.0168 0 40.8946 47.7779 31.535 26.2193 13.4631 32.82 55.0133 68.2669 82.8356 17.0168 
48.1362 40.8946 0 8.99238 54.7413 44.9662 47.3513 71.3735 95.9079 39.7935 51.8544 48.1362 
39.1438 47.7779 8.99238 0 61.6247 51.8495 54.2346 78.2568 102.791 46.6768 59.6139 39.1438 
47.4572 31.535 54.7413 61.6247 0 9.77517 18.0719 16.6322 41.1666 36.7319 51.3006 47.4572 
42.1415 26.2193 44.9662 51.8495 9.77517 0 12.7562 26.4073 50.9418 42.0476 56.6163 42.1415 
29.3852 13.4631 47.3513 54.2346 18.0719 12.7562 0 24.0222 48.5566 54.8038 69.3725 29.3852 
48.7421 32.82 71.3735 78.2568 16.6322 26.4073 24.0222 0 24.5344 35.447 50.0157 48.7421 
72.0301 55.0133 95.9079 102.791 41.1666 50.9418 48.5566 24.5344 0 56.1144 55.2912 72.0301 
84.189 68.2669 39.7935 46.6768 36.7319 42.0476 54.8038 35.447 56.1144 0 14.5687 84.189 
98.7577 82.8356 51.8544 59.6139 51.3006 56.6163 69.3725 50.0157 55.2912 14.5687 0 98.7577 
0 0 0 0 0 0 0 0 0 0 0 0 
Printing tau_prime:
0 6.17945 14.2481 13.2011 15.0111 12.4955 9.9728 18.0461 22.308 22.7194 27.2176 0 
6.17945 0 13.8042 14.0862 9.13258 7.03578 3.95926 11.8767 16.3139 18.1044 22.1565 6.17945 
14.2481 13.8042 0 3.00285 14.5166 12.029 13.5046 18.9264 25.4616 14.2385 19.2156 14.2481 
13.2011 14.0862 3.00285 0 16.4887 13.7716 14.6121 20.9065 27.2807 17.2006 22.1915 13.2011 
15.0111 9.13258 14.5166 16.4887 0 2.9505 5.17723 4.42341 10.9671 10.5156 13.6246 15.0111 
12.4955 7.03578 12.029 13.7716 2.9505 0 3.44113 7.21773 13.5125 11.2336 15.1234 12.4955 
9.9728 3.95926 13.5046 14.6121 5.17723 3.44113 0 8.18048 13.406 14.6696 18.4339 9.9728 
18.0461 11.8767 18.9264 20.9065 4.42341 7.21773 8.18048 0 6.65437 12.5884 14.2366 18.0461 
22.308 16.3139 25.4616 27.2807 10.9671 13.5125 13.406 6.65437 0 18.3848 18.7459 22.308 
22.7194 18.1044 14.2385 17.2006 10.5156 11.2336 14.6696 12.5884 18.3848 0 5.01514 22.7194 
27.2176 22.1565 19.2156 22.1915 13.6246 15.1234 18.4339 14.2366 18.7459 5.01514 0 27.2176 
0 0 0 0 0 0 0 0 0 0 0 0 
Version identifier: 22.1.1.0 | 2022-11-28 | 9160aff4d
CPXPARAM_MIP_Tolerances_Integrality              0
Tried aggregator 1 time.
MIP Presolve eliminated 1 rows and 12 columns.
MIP Presolve modified 20 coefficients.
Reduced MIP has 122 rows, 120 columns, and 510 nonzeros.
Reduced MIP has 110 binaries, 0 generals, 0 SOSs, and 0 indicators.
Presolve time = 0.00 sec. (0.27 ticks)
Found incumbent of value 519.479900 after 0.00 sec. (0.75 ticks)
Probing time = 0.00 sec. (0.26 ticks)
Cover probing fixed 0 vars, tightened 10 bounds.
Tried aggregator 1 time.
Detecting symmetries...
MIP Presolve eliminated 10 rows and 0 columns.
MIP Presolve modified 180 coefficients.
Reduced MIP has 112 rows, 120 columns, and 490 nonzeros.
Reduced MIP has 110 binaries, 0 generals, 0 SOSs, and 0 indicators.
Presolve time = 0.00 sec. (0.35 ticks)
Probing time = 0.00 sec. (0.26 ticks)
Clique table members: 67.
MIP emphasis: balance optimality and feasibility.
MIP search method: dynamic search.
Parallel mode: deterministic, using up to 20 threads.
Root relaxation solution time = 0.00 sec. (0.20 ticks)

        Nodes                                         Cuts/
   Node  Left     Objective  IInf  Best Integer    Best Bound    ItCnt     Gap

*     0+    0                          519.4799        0.0000           100.00%
      0     0      187.0558    23      519.4799      187.0558       22   63.99%
*     0+    0                          303.6472      187.0558            38.40%
      0     0      251.9674    22      303.6472      Cuts: 27       42   17.02%
*     0+    0                          251.9674      251.9674             0.00%
*     0+    0                          251.9674      251.9674            -0.00%
      0     0        cutoff            251.9674                     42    0.00%
Elapsed time = 0.05 sec. (4.00 ticks, tree = 0.01 MB, solutions = 3)

Clique cuts applied:  3
Implied bound cuts applied:  9
Multi commodity flow cuts applied:  8
Warning: integer solution contains unscaled infeasibilities.

Root node processing (before b&c):
  Real time             =    0.05 sec. (4.00 ticks)
Parallel b&c, 20 threads:
  Real time             =    0.00 sec. (0.00 ticks)
  Sync time (average)   =    0.00 sec.
  Wait time (average)   =    0.00 sec.
                          ------------
Total (root+branch&cut) =    0.05 sec. (4.00 ticks)

TSP solution for this instance: 0 1 6 5 4 7 8 10 9 2 3 11 
12
Warmstart X[1][0] == 1
Warmstart X[2][1] == 1
Warmstart X[3][6] == 1
Warmstart X[4][5] == 1
Warmstart X[5][4] == 1
Warmstart X[6][7] == 1
Warmstart X[7][8] == 1
Warmstart X[8][10] == 1
Warmstart X[9][9] == 1
Warmstart X[10][2] == 1
Warmstart X[11][3] == 1
---------------------------------------------
Calculate max stage gap for sortie.... 
Stage gap of 3 with smallest length = 26.9771 violated endurance constraint!
---------------------------------------------
Variable z[1][4] was set to 0.
Variable z[1][5] was set to 0.
Variable z[1][6] was set to 0.
Variable z[1][7] was set to 0.
Variable z[1][8] was set to 0.
Variable z[1][9] was set to 0.
Variable z[1][10] was set to 0.
Variable z[1][11] was set to 0.
Variable z[1][12] was set to 0.
Variable z[2][5] was set to 0.
Variable z[2][6] was set to 0.
Variable z[2][7] was set to 0.
Variable z[2][8] was set to 0.
Variable z[2][9] was set to 0.
Variable z[2][10] was set to 0.
Variable z[2][11] was set to 0.
Variable z[2][12] was set to 0.
Variable z[3][6] was set to 0.
Variable z[3][7] was set to 0.
Variable z[3][8] was set to 0.
Variable z[3][9] was set to 0.
Variable z[3][10] was set to 0.
Variable z[3][11] was set to 0.
Variable z[3][12] was set to 0.
Variable z[4][7] was set to 0.
Variable z[4][8] was set to 0.
Variable z[4][9] was set to 0.
Variable z[4][10] was set to 0.
Variable z[4][11] was set to 0.
Variable z[4][12] was set to 0.
Variable z[5][8] was set to 0.
Variable z[5][9] was set to 0.
Variable z[5][10] was set to 0.
Variable z[5][11] was set to 0.
Variable z[5][12] was set to 0.
Variable z[6][9] was set to 0.
Variable z[6][10] was set to 0.
Variable z[6][11] was set to 0.
Variable z[6][12] was set to 0.
Variable z[7][10] was set to 0.
Variable z[7][11] was set to 0.
Variable z[7][12] was set to 0.
Variable z[8][11] was set to 0.
Variable z[8][12] was set to 0.
Variable z[9][12] was set to 0.
Num constraint added = 4752
Warning:  Output names have been modified due to duplicate names or characters invalid in LP format.
Version identifier: 22.1.1.0 | 2022-11-28 | 9160aff4d
CPXPARAM_TimeLimit                               200
CPXPARAM_MIP_Tolerances_Integrality              0
1 of 1 MIP starts provided solutions.
MIP start 'm1' defined initial solution with objective 251.9674.
Tried aggregator 2 times.
MIP Presolve eliminated 6280 rows and 2365 columns.
MIP Presolve modified 1973 coefficients.
Aggregator did 40 substitutions.
Reduced MIP has 1254 rows, 2371 columns, and 50915 nonzeros.
Reduced MIP has 2350 binaries, 0 generals, 0 SOSs, and 0 indicators.
Presolve time = 0.07 sec. (196.06 ticks)
Probing fixed 254 vars, tightened 0 bounds.
Probing changed sense of 6 constraints.
Probing time = 0.03 sec. (67.17 ticks)
Tried aggregator 2 times.
MIP Presolve eliminated 29 rows and 254 columns.
MIP Presolve modified 109 coefficients.
Aggregator did 10 substitutions.
Reduced MIP has 1215 rows, 2107 columns, and 43514 nonzeros.
Reduced MIP has 2086 binaries, 0 generals, 0 SOSs, and 0 indicators.
Presolve time = 0.03 sec. (69.42 ticks)
Probing time = 0.00 sec. (5.14 ticks)
Tried aggregator 1 time.
Detecting symmetries...
Reduced MIP has 1215 rows, 2107 columns, and 43514 nonzeros.
Reduced MIP has 2086 binaries, 0 generals, 0 SOSs, and 0 indicators.
Presolve time = 0.02 sec. (41.84 ticks)
Probing time = 0.00 sec. (5.14 ticks)
Clique table members: 11370.
MIP emphasis: balance optimality and feasibility.
MIP search method: dynamic search.
Parallel mode: deterministic, using up to 20 threads.
Root relaxation solution time = 0.12 sec. (266.53 ticks)

        Nodes                                         Cuts/
   Node  Left     Objective  IInf  Best Integer    Best Bound    ItCnt     Gap

*     0+    0                          251.9674       17.0168            93.25%
      0     0      135.8449   327      251.9674      135.8449       37   46.09%
      0     0      149.7234   303      251.9674      Cuts: 49      786   40.58%
*     0+    0                          243.0639      149.7234            38.40%
      0     0      153.2397   309      243.0639      Cuts: 29     1092   36.95%
      0     0      156.2653   264      243.0639      Cuts: 26     1578   35.71%
*     0+    0                          240.2377      156.2653            34.95%
      0     0  -1.00000e+75     0      240.2377      156.2653     1578   34.95%
      0     0      156.9240   323      240.2377      Cuts: 32     2159   34.68%
      0     0      160.0754   374      240.2377      Cuts: 18     2585   33.37%
Detecting symmetries...
      0     0      160.2015   376      240.2377       Cuts: 6     2817   33.32%
*     0+    0                          225.1468      160.2015            28.85%
      0     0      160.3857   375      225.1468       Cuts: 2     2967   28.76%
      0     0      160.3861   379      225.1468       Cuts: 2     3017   28.76%
      0     0      160.5838   362      225.1468   ZeroHalf: 2     3217   28.68%
      0     0      167.6660   242      225.1468   ZeroHalf: 8     4277   25.53%
      0     0      169.4171   281      225.1468      Cuts: 44     4809   24.75%
      0     0      171.7756   326      225.1468  ZeroHalf: 19     7120   22.36%
      0     0      175.0849   314      225.1468      Cuts: 24     7823   22.22%
      0     0      175.3716   359      225.1468  ZeroHalf: 13     8535   22.09%
      0     0      175.5661   324      225.1468   ZeroHalf: 3     8857   22.02%
      0     0      175.6638   357      225.1468       Cuts: 7     9143   21.98%
      0     0      175.7750   351      225.1468       Cuts: 8     9269   21.93%
      0     0      175.7750   358      225.1468       Cuts: 3     9284   21.93%
Detecting symmetries...
      0     2      175.7750   353      225.1468      175.7750     9289   21.93%
Elapsed time = 2.07 sec. (3834.55 ticks, tree = 0.02 MB, solutions = 4)
     39    18      200.1055   183      225.1468      181.2994    19124   19.48%
*   592+  150                          220.1796      183.2561            16.77%
    610   148      216.2219   143      220.1796      183.2561    74712   16.77%
   1140   221        cutoff            220.1796      185.8939   147865   15.57%
   1402    20        cutoff            220.1796      188.2650   176196   14.49%
   1465    11      198.2703   187      220.1796      194.2043   182668   11.80%

GUB cover cuts applied:  4
Clique cuts applied:  2
Cover cuts applied:  12
Implied bound cuts applied:  8
Mixed integer rounding cuts applied:  1
Zero-half cuts applied:  33
Lift and project cuts applied:  1
Gomory fractional cuts applied:  2

Root node processing (before b&c):
  Real time             =    2.02 sec. (3759.71 ticks)
Parallel b&c, 20 threads:
  Real time             =    1.15 sec. (1421.19 ticks)
  Sync time (average)   =    0.58 sec.
  Wait time (average)   =    0.00 sec.
                          ------------
Total (root+branch&cut) =    3.18 sec. (5180.90 ticks)
Feasible solution found!
Truck nodes:
Stage 1 at customer 0 with arrival time is: 0
Stage 1 at customer 0 with departure time is: 0
Stage 2 at customer 3 with arrival time is: 39.1438
Stage 2 at customer 3 with departure time is: 39.1438
Stage 3 at customer 2 with arrival time is: 48.1362
Stage 3 at customer 2 with departure time is: 48.1362
Stage 4 at customer 10 with arrival time is: 99.9906
Stage 4 at customer 10 with departure time is: 99.9906
Stage 5 at customer 9 with arrival time is: 114.559
Stage 5 at customer 9 with departure time is: 114.559
Stage 6 at customer 7 with arrival time is: 150.006
Stage 6 at customer 7 with departure time is: 151.006
Stage 7 at customer 4 with arrival time is: 167.638
Stage 7 at customer 4 with departure time is: 170.628
Stage 8 at customer 6 with arrival time is: 188.7
Stage 8 at customer 6 with departure time is: 189.7
Stage 9 at customer 1 with arrival time is: 203.163
Stage 9 at customer 1 with departure time is: 203.163
Stage 10 at customer 11 with arrival time is: 220.18
Stage 10 at customer 11 with departure time is: 220.18
Truck arcs:
Arc 1 connecting 0 and 3 with cost 39.1438 
Arc 2 connecting 3 and 2 with cost 8.99238 
Arc 3 connecting 2 and 10 with cost 51.8544 
Arc 4 connecting 10 and 9 with cost 14.5687 
Arc 5 connecting 9 and 7 with cost 35.447 
Arc 6 connecting 7 and 4 with cost 16.6322 
Arc 7 connecting 4 and 6 with cost 18.0719 
Arc 8 connecting 6 and 1 with cost 13.4631 
Arc 9 connecting 1 and 11 with cost 17.0168 
Customer 5 served by drone.
Drone fly from 4 at stage 7 to serve 5 and then fly back to 6 at stage 8. 
Truck arcs during this sortie: 4--->6
Truck travel time from stage 7 to 8 is: 18.0719
Total drone travel time: 6.39163
Drone arrival time: 177.019
Truck arrival time: 188.7
Truck departure time = max(d/a, t/a) plus (sl/sr): 189.7
Customer 8 served by drone.
Drone fly from 7 at stage 6 to serve 8 and then fly back to 4 at stage 7. 
Truck arcs during this sortie: 7--->4
Truck travel time from stage 6 to 7 is: 16.6322
Total drone travel time: 17.6215
Drone arrival time: 168.628
Truck arrival time: 167.638
Truck departure time = max(d/a, t/a) plus (sl/sr): 170.628
Done!
-------------------------Re-calculated objective-----------------------
220.18
------------------------------------------------------------------------
Solve time: 3.178
OBJECTIVE VALUE: 220.18, NUMBER OF SORTIES: 2.
Number of revisit: 0
In write mode
